language Essence 1.3
letting nnodes be 110
letting nrings be 55
letting capacity be 55
letting demand be 
{{1, 2},
{1, 7},
{1, 9},
{1, 11},
{1, 13},
{1, 14},
{1, 16},
{1, 17},
{1, 18},
{1, 19},
{1, 20},
{1, 21},
{1, 24},
{1, 25},
{1, 26},
{1, 29},
{1, 32},
{1, 33},
{1, 34},
{1, 35},
{1, 37},
{1, 43},
{1, 46},
{1, 48},
{1, 50},
{1, 52},
{1, 53},
{1, 54},
{1, 56},
{1, 58},
{1, 60},
{1, 63},
{1, 66},
{1, 68},
{1, 72},
{1, 74},
{1, 77},
{1, 78},
{1, 81},
{1, 82},
{1, 83},
{1, 90},
{1, 92},
{1, 93},
{1, 94},
{1, 95},
{1, 97},
{1, 100},
{1, 102},
{1, 104},
{1, 105},
{1, 107},
{1, 108},
{1, 109},
{1, 110},
{2, 3},
{2, 4},
{2, 5},
{2, 8},
{2, 9},
{2, 13},
{2, 14},
{2, 17},
{2, 18},
{2, 20},
{2, 21},
{2, 23},
{2, 24},
{2, 25},
{2, 26},
{2, 29},
{2, 31},
{2, 32},
{2, 34},
{2, 35},
{2, 36},
{2, 37},
{2, 41},
{2, 42},
{2, 43},
{2, 45},
{2, 46},
{2, 49},
{2, 50},
{2, 52},
{2, 53},
{2, 54},
{2, 55},
{2, 56},
{2, 57},
{2, 58},
{2, 59},
{2, 60},
{2, 61},
{2, 62},
{2, 63},
{2, 67},
{2, 68},
{2, 69},
{2, 73},
{2, 74},
{2, 76},
{2, 77},
{2, 78},
{2, 81},
{2, 83},
{2, 84},
{2, 86},
{2, 87},
{2, 89},
{2, 91},
{2, 92},
{2, 94},
{2, 96},
{2, 97},
{2, 101},
{2, 102},
{2, 103},
{2, 104},
{2, 106},
{2, 107},
{2, 108},
{2, 109},
{3, 4},
{3, 5},
{3, 7},
{3, 8},
{3, 9},
{3, 12},
{3, 15},
{3, 16},
{3, 18},
{3, 23},
{3, 24},
{3, 27},
{3, 28},
{3, 29},
{3, 30},
{3, 31},
{3, 33},
{3, 34},
{3, 35},
{3, 37},
{3, 38},
{3, 39},
{3, 41},
{3, 43},
{3, 44},
{3, 45},
{3, 47},
{3, 50},
{3, 51},
{3, 53},
{3, 56},
{3, 59},
{3, 60},
{3, 61},
{3, 63},
{3, 64},
{3, 67},
{3, 70},
{3, 72},
{3, 73},
{3, 75},
{3, 77},
{3, 79},
{3, 81},
{3, 83},
{3, 85},
{3, 87},
{3, 89},
{3, 91},
{3, 92},
{3, 93},
{3, 97},
{3, 98},
{3, 100},
{3, 101},
{3, 105},
{3, 106},
{3, 107},
{3, 109},
{4, 6},
{4, 7},
{4, 8},
{4, 9},
{4, 10},
{4, 11},
{4, 13},
{4, 14},
{4, 15},
{4, 16},
{4, 18},
{4, 22},
{4, 27},
{4, 33},
{4, 37},
{4, 38},
{4, 42},
{4, 43},
{4, 47},
{4, 48},
{4, 49},
{4, 50},
{4, 51},
{4, 52},
{4, 54},
{4, 55},
{4, 58},
{4, 59},
{4, 61},
{4, 62},
{4, 66},
{4, 67},
{4, 68},
{4, 69},
{4, 72},
{4, 73},
{4, 74},
{4, 75},
{4, 78},
{4, 82},
{4, 85},
{4, 86},
{4, 88},
{4, 90},
{4, 91},
{4, 93},
{4, 94},
{4, 96},
{4, 97},
{4, 99},
{4, 100},
{4, 103},
{4, 104},
{4, 106},
{4, 107},
{4, 109},
{5, 8},
{5, 13},
{5, 15},
{5, 17},
{5, 20},
{5, 23},
{5, 25},
{5, 27},
{5, 29},
{5, 30},
{5, 31},
{5, 34},
{5, 35},
{5, 36},
{5, 37},
{5, 43},
{5, 48},
{5, 49},
{5, 51},
{5, 52},
{5, 54},
{5, 57},
{5, 58},
{5, 59},
{5, 61},
{5, 62},
{5, 63},
{5, 64},
{5, 65},
{5, 67},
{5, 70},
{5, 72},
{5, 74},
{5, 75},
{5, 76},
{5, 80},
{5, 86},
{5, 87},
{5, 88},
{5, 89},
{5, 91},
{5, 93},
{5, 95},
{5, 97},
{5, 98},
{5, 99},
{5, 100},
{5, 107},
{5, 110},
{6, 7},
{6, 8},
{6, 9},
{6, 10},
{6, 12},
{6, 13},
{6, 14},
{6, 16},
{6, 17},
{6, 19},
{6, 20},
{6, 21},
{6, 22},
{6, 28},
{6, 32},
{6, 34},
{6, 35},
{6, 36},
{6, 37},
{6, 39},
{6, 42},
{6, 44},
{6, 48},
{6, 49},
{6, 50},
{6, 52},
{6, 53},
{6, 58},
{6, 59},
{6, 62},
{6, 64},
{6, 68},
{6, 72},
{6, 74},
{6, 75},
{6, 76},
{6, 78},
{6, 79},
{6, 81},
{6, 83},
{6, 84},
{6, 86},
{6, 87},
{6, 89},
{6, 90},
{6, 91},
{6, 92},
{6, 96},
{6, 97},
{6, 98},
{6, 100},
{6, 104},
{6, 106},
{6, 107},
{7, 9},
{7, 10},
{7, 14},
{7, 22},
{7, 23},
{7, 24},
{7, 30},
{7, 33},
{7, 35},
{7, 37},
{7, 38},
{7, 40},
{7, 41},
{7, 43},
{7, 45},
{7, 46},
{7, 48},
{7, 50},
{7, 52},
{7, 55},
{7, 56},
{7, 57},
{7, 58},
{7, 59},
{7, 60},
{7, 61},
{7, 62},
{7, 63},
{7, 68},
{7, 69},
{7, 70},
{7, 72},
{7, 74},
{7, 76},
{7, 78},
{7, 79},
{7, 81},
{7, 83},
{7, 84},
{7, 85},
{7, 88},
{7, 89},
{7, 90},
{7, 91},
{7, 93},
{7, 95},
{7, 96},
{7, 97},
{7, 98},
{7, 99},
{7, 102},
{7, 106},
{7, 108},
{7, 110},
{8, 9},
{8, 10},
{8, 11},
{8, 12},
{8, 14},
{8, 15},
{8, 21},
{8, 22},
{8, 25},
{8, 26},
{8, 28},
{8, 30},
{8, 32},
{8, 35},
{8, 38},
{8, 39},
{8, 40},
{8, 41},
{8, 42},
{8, 43},
{8, 45},
{8, 48},
{8, 51},
{8, 54},
{8, 56},
{8, 57},
{8, 58},
{8, 62},
{8, 63},
{8, 66},
{8, 71},
{8, 72},
{8, 73},
{8, 74},
{8, 75},
{8, 76},
{8, 77},
{8, 78},
{8, 81},
{8, 82},
{8, 84},
{8, 85},
{8, 86},
{8, 88},
{8, 89},
{8, 90},
{8, 95},
{8, 96},
{8, 98},
{8, 101},
{8, 102},
{8, 103},
{8, 104},
{8, 107},
{8, 108},
{8, 109},
{8, 110},
{9, 10},
{9, 11},
{9, 12},
{9, 14},
{9, 15},
{9, 19},
{9, 21},
{9, 26},
{9, 27},
{9, 30},
{9, 31},
{9, 32},
{9, 33},
{9, 35},
{9, 37},
{9, 40},
{9, 43},
{9, 44},
{9, 48},
{9, 49},
{9, 52},
{9, 55},
{9, 57},
{9, 58},
{9, 64},
{9, 70},
{9, 73},
{9, 77},
{9, 78},
{9, 81},
{9, 82},
{9, 84},
{9, 85},
{9, 87},
{9, 88},
{9, 90},
{9, 96},
{9, 98},
{9, 101},
{9, 102},
{9, 103},
{9, 104},
{9, 105},
{9, 106},
{9, 108},
{9, 110},
{10, 12},
{10, 15},
{10, 16},
{10, 18},
{10, 20},
{10, 21},
{10, 23},
{10, 25},
{10, 27},
{10, 28},
{10, 30},
{10, 33},
{10, 34},
{10, 35},
{10, 36},
{10, 37},
{10, 38},
{10, 39},
{10, 46},
{10, 49},
{10, 50},
{10, 51},
{10, 52},
{10, 54},
{10, 59},
{10, 60},
{10, 61},
{10, 62},
{10, 63},
{10, 64},
{10, 65},
{10, 69},
{10, 70},
{10, 73},
{10, 75},
{10, 76},
{10, 77},
{10, 78},
{10, 79},
{10, 80},
{10, 82},
{10, 83},
{10, 84},
{10, 87},
{10, 88},
{10, 90},
{10, 96},
{10, 97},
{10, 98},
{10, 102},
{10, 103},
{10, 105},
{10, 107},
{10, 110},
{11, 17},
{11, 18},
{11, 20},
{11, 23},
{11, 26},
{11, 27},
{11, 28},
{11, 29},
{11, 35},
{11, 40},
{11, 41},
{11, 42},
{11, 44},
{11, 45},
{11, 46},
{11, 47},
{11, 51},
{11, 53},
{11, 54},
{11, 56},
{11, 57},
{11, 58},
{11, 59},
{11, 64},
{11, 65},
{11, 77},
{11, 79},
{11, 80},
{11, 81},
{11, 82},
{11, 83},
{11, 87},
{11, 88},
{11, 91},
{11, 92},
{11, 93},
{11, 94},
{11, 96},
{11, 97},
{11, 98},
{11, 100},
{11, 106},
{11, 109},
{12, 18},
{12, 20},
{12, 23},
{12, 24},
{12, 25},
{12, 27},
{12, 28},
{12, 29},
{12, 30},
{12, 32},
{12, 33},
{12, 34},
{12, 35},
{12, 36},
{12, 39},
{12, 41},
{12, 43},
{12, 44},
{12, 48},
{12, 49},
{12, 51},
{12, 54},
{12, 56},
{12, 57},
{12, 58},
{12, 62},
{12, 64},
{12, 65},
{12, 68},
{12, 69},
{12, 70},
{12, 71},
{12, 72},
{12, 73},
{12, 74},
{12, 80},
{12, 82},
{12, 84},
{12, 87},
{12, 89},
{12, 91},
{12, 92},
{12, 94},
{12, 97},
{12, 100},
{12, 102},
{12, 110},
{13, 15},
{13, 20},
{13, 22},
{13, 23},
{13, 24},
{13, 25},
{13, 26},
{13, 29},
{13, 30},
{13, 32},
{13, 33},
{13, 38},
{13, 40},
{13, 42},
{13, 44},
{13, 47},
{13, 48},
{13, 55},
{13, 56},
{13, 58},
{13, 60},
{13, 61},
{13, 62},
{13, 63},
{13, 64},
{13, 67},
{13, 69},
{13, 70},
{13, 71},
{13, 75},
{13, 76},
{13, 77},
{13, 78},
{13, 79},
{13, 82},
{13, 83},
{13, 86},
{13, 88},
{13, 89},
{13, 91},
{13, 92},
{13, 94},
{13, 95},
{13, 98},
{13, 100},
{13, 102},
{13, 103},
{13, 105},
{13, 107},
{14, 17},
{14, 18},
{14, 19},
{14, 20},
{14, 21},
{14, 22},
{14, 23},
{14, 24},
{14, 27},
{14, 29},
{14, 30},
{14, 31},
{14, 32},
{14, 33},
{14, 34},
{14, 35},
{14, 36},
{14, 38},
{14, 39},
{14, 40},
{14, 41},
{14, 42},
{14, 43},
{14, 47},
{14, 48},
{14, 50},
{14, 52},
{14, 54},
{14, 55},
{14, 57},
{14, 59},
{14, 64},
{14, 65},
{14, 66},
{14, 68},
{14, 69},
{14, 70},
{14, 73},
{14, 76},
{14, 77},
{14, 82},
{14, 84},
{14, 88},
{14, 89},
{14, 90},
{14, 92},
{14, 96},
{14, 100},
{14, 101},
{14, 102},
{14, 103},
{14, 107},
{14, 110},
{15, 16},
{15, 17},
{15, 21},
{15, 22},
{15, 24},
{15, 25},
{15, 26},
{15, 28},
{15, 30},
{15, 31},
{15, 34},
{15, 36},
{15, 44},
{15, 45},
{15, 46},
{15, 51},
{15, 55},
{15, 56},
{15, 57},
{15, 62},
{15, 63},
{15, 64},
{15, 66},
{15, 68},
{15, 70},
{15, 72},
{15, 74},
{15, 75},
{15, 77},
{15, 81},
{15, 82},
{15, 83},
{15, 85},
{15, 87},
{15, 88},
{15, 89},
{15, 91},
{15, 94},
{15, 97},
{15, 99},
{15, 101},
{15, 102},
{15, 103},
{15, 104},
{15, 105},
{15, 107},
{15, 109},
{16, 18},
{16, 19},
{16, 25},
{16, 26},
{16, 27},
{16, 28},
{16, 31},
{16, 32},
{16, 35},
{16, 38},
{16, 39},
{16, 40},
{16, 42},
{16, 43},
{16, 45},
{16, 46},
{16, 47},
{16, 49},
{16, 51},
{16, 56},
{16, 57},
{16, 58},
{16, 59},
{16, 61},
{16, 66},
{16, 67},
{16, 69},
{16, 70},
{16, 71},
{16, 72},
{16, 73},
{16, 76},
{16, 77},
{16, 79},
{16, 81},
{16, 82},
{16, 84},
{16, 85},
{16, 86},
{16, 88},
{16, 91},
{16, 93},
{16, 95},
{16, 96},
{16, 97},
{16, 98},
{16, 101},
{16, 103},
{16, 105},
{16, 108},
{16, 110},
{17, 21},
{17, 22},
{17, 23},
{17, 32},
{17, 33},
{17, 38},
{17, 39},
{17, 40},
{17, 44},
{17, 45},
{17, 47},
{17, 52},
{17, 55},
{17, 58},
{17, 59},
{17, 60},
{17, 62},
{17, 73},
{17, 74},
{17, 76},
{17, 77},
{17, 78},
{17, 79},
{17, 81},
{17, 85},
{17, 90},
{17, 91},
{17, 92},
{17, 93},
{17, 94},
{17, 97},
{17, 100},
{17, 101},
{17, 102},
{17, 106},
{17, 107},
{17, 110},
{18, 19},
{18, 23},
{18, 24},
{18, 25},
{18, 27},
{18, 29},
{18, 31},
{18, 32},
{18, 36},
{18, 37},
{18, 38},
{18, 43},
{18, 46},
{18, 47},
{18, 51},
{18, 54},
{18, 58},
{18, 60},
{18, 61},
{18, 62},
{18, 64},
{18, 66},
{18, 68},
{18, 71},
{18, 74},
{18, 75},
{18, 76},
{18, 77},
{18, 80},
{18, 81},
{18, 83},
{18, 84},
{18, 86},
{18, 87},
{18, 88},
{18, 90},
{18, 94},
{18, 95},
{18, 97},
{18, 102},
{18, 104},
{18, 106},
{18, 109},
{19, 21},
{19, 22},
{19, 23},
{19, 28},
{19, 33},
{19, 35},
{19, 37},
{19, 39},
{19, 47},
{19, 52},
{19, 54},
{19, 56},
{19, 57},
{19, 59},
{19, 61},
{19, 64},
{19, 66},
{19, 68},
{19, 72},
{19, 74},
{19, 77},
{19, 79},
{19, 80},
{19, 83},
{19, 86},
{19, 88},
{19, 89},
{19, 90},
{19, 91},
{19, 92},
{19, 93},
{19, 94},
{19, 96},
{19, 97},
{19, 98},
{19, 103},
{19, 104},
{19, 105},
{19, 109},
{19, 110},
{20, 25},
{20, 27},
{20, 29},
{20, 31},
{20, 36},
{20, 38},
{20, 39},
{20, 40},
{20, 41},
{20, 42},
{20, 43},
{20, 44},
{20, 46},
{20, 47},
{20, 48},
{20, 49},
{20, 51},
{20, 53},
{20, 55},
{20, 57},
{20, 59},
{20, 60},
{20, 61},
{20, 65},
{20, 67},
{20, 68},
{20, 71},
{20, 73},
{20, 74},
{20, 75},
{20, 76},
{20, 77},
{20, 78},
{20, 80},
{20, 83},
{20, 84},
{20, 89},
{20, 91},
{20, 94},
{20, 95},
{20, 96},
{20, 98},
{20, 101},
{20, 103},
{20, 106},
{20, 110},
{21, 23},
{21, 24},
{21, 25},
{21, 26},
{21, 28},
{21, 29},
{21, 30},
{21, 35},
{21, 36},
{21, 39},
{21, 40},
{21, 42},
{21, 43},
{21, 44},
{21, 46},
{21, 48},
{21, 52},
{21, 53},
{21, 54},
{21, 56},
{21, 58},
{21, 60},
{21, 61},
{21, 63},
{21, 64},
{21, 65},
{21, 70},
{21, 71},
{21, 72},
{21, 73},
{21, 74},
{21, 76},
{21, 78},
{21, 80},
{21, 81},
{21, 83},
{21, 84},
{21, 85},
{21, 88},
{21, 90},
{21, 92},
{21, 96},
{21, 97},
{21, 98},
{21, 102},
{21, 103},
{21, 108},
{21, 110},
{22, 23},
{22, 24},
{22, 25},
{22, 26},
{22, 27},
{22, 28},
{22, 31},
{22, 36},
{22, 37},
{22, 40},
{22, 41},
{22, 42},
{22, 48},
{22, 49},
{22, 50},
{22, 51},
{22, 52},
{22, 53},
{22, 54},
{22, 55},
{22, 56},
{22, 57},
{22, 58},
{22, 63},
{22, 64},
{22, 65},
{22, 66},
{22, 67},
{22, 69},
{22, 71},
{22, 73},
{22, 74},
{22, 75},
{22, 76},
{22, 79},
{22, 80},
{22, 84},
{22, 85},
{22, 86},
{22, 88},
{22, 90},
{22, 91},
{22, 95},
{22, 102},
{22, 103},
{22, 104},
{22, 105},
{22, 109},
{23, 24},
{23, 25},
{23, 26},
{23, 28},
{23, 29},
{23, 33},
{23, 34},
{23, 41},
{23, 42},
{23, 43},
{23, 44},
{23, 47},
{23, 48},
{23, 49},
{23, 50},
{23, 51},
{23, 53},
{23, 54},
{23, 55},
{23, 56},
{23, 59},
{23, 62},
{23, 64},
{23, 65},
{23, 69},
{23, 70},
{23, 71},
{23, 72},
{23, 77},
{23, 78},
{23, 79},
{23, 80},
{23, 81},
{23, 82},
{23, 83},
{23, 84},
{23, 85},
{23, 87},
{23, 88},
{23, 91},
{23, 95},
{23, 97},
{23, 98},
{23, 99},
{23, 100},
{23, 102},
{23, 105},
{23, 106},
{23, 109},
{24, 25},
{24, 26},
{24, 28},
{24, 30},
{24, 31},
{24, 33},
{24, 35},
{24, 36},
{24, 39},
{24, 42},
{24, 49},
{24, 51},
{24, 52},
{24, 54},
{24, 56},
{24, 59},
{24, 62},
{24, 63},
{24, 65},
{24, 78},
{24, 82},
{24, 83},
{24, 86},
{24, 88},
{24, 89},
{24, 90},
{24, 91},
{24, 92},
{24, 93},
{24, 94},
{24, 97},
{24, 100},
{24, 101},
{24, 102},
{24, 103},
{24, 104},
{24, 106},
{24, 108},
{24, 109},
{24, 110},
{25, 26},
{25, 28},
{25, 29},
{25, 30},
{25, 31},
{25, 33},
{25, 34},
{25, 37},
{25, 38},
{25, 40},
{25, 41},
{25, 44},
{25, 46},
{25, 47},
{25, 49},
{25, 50},
{25, 51},
{25, 55},
{25, 61},
{25, 63},
{25, 66},
{25, 67},
{25, 69},
{25, 70},
{25, 71},
{25, 72},
{25, 73},
{25, 74},
{25, 75},
{25, 76},
{25, 77},
{25, 78},
{25, 79},
{25, 82},
{25, 83},
{25, 87},
{25, 89},
{25, 90},
{25, 91},
{25, 93},
{25, 94},
{25, 98},
{25, 102},
{25, 104},
{25, 105},
{25, 106},
{25, 108},
{25, 110},
{26, 27},
{26, 28},
{26, 29},
{26, 31},
{26, 32},
{26, 33},
{26, 36},
{26, 37},
{26, 39},
{26, 40},
{26, 41},
{26, 42},
{26, 45},
{26, 48},
{26, 49},
{26, 50},
{26, 52},
{26, 53},
{26, 56},
{26, 58},
{26, 63},
{26, 64},
{26, 65},
{26, 66},
{26, 70},
{26, 72},
{26, 74},
{26, 80},
{26, 83},
{26, 84},
{26, 85},
{26, 86},
{26, 89},
{26, 91},
{26, 92},
{26, 95},
{26, 96},
{26, 97},
{26, 99},
{26, 100},
{26, 101},
{26, 102},
{26, 103},
{26, 106},
{26, 107},
{26, 108},
{26, 109},
{27, 28},
{27, 30},
{27, 34},
{27, 36},
{27, 42},
{27, 43},
{27, 48},
{27, 50},
{27, 52},
{27, 53},
{27, 55},
{27, 58},
{27, 65},
{27, 67},
{27, 68},
{27, 70},
{27, 71},
{27, 72},
{27, 73},
{27, 74},
{27, 81},
{27, 82},
{27, 83},
{27, 87},
{27, 94},
{27, 95},
{27, 98},
{27, 102},
{27, 104},
{27, 105},
{27, 106},
{27, 108},
{28, 29},
{28, 30},
{28, 34},
{28, 35},
{28, 36},
{28, 39},
{28, 42},
{28, 43},
{28, 46},
{28, 47},
{28, 49},
{28, 50},
{28, 51},
{28, 52},
{28, 54},
{28, 55},
{28, 56},
{28, 59},
{28, 66},
{28, 68},
{28, 69},
{28, 71},
{28, 72},
{28, 73},
{28, 75},
{28, 77},
{28, 78},
{28, 80},
{28, 82},
{28, 85},
{28, 86},
{28, 88},
{28, 90},
{28, 91},
{28, 92},
{28, 95},
{28, 97},
{28, 98},
{28, 99},
{28, 100},
{28, 101},
{28, 102},
{28, 104},
{28, 105},
{28, 106},
{28, 107},
{28, 109},
{29, 30},
{29, 32},
{29, 36},
{29, 37},
{29, 38},
{29, 39},
{29, 40},
{29, 41},
{29, 44},
{29, 49},
{29, 51},
{29, 53},
{29, 58},
{29, 59},
{29, 60},
{29, 62},
{29, 64},
{29, 65},
{29, 68},
{29, 70},
{29, 73},
{29, 75},
{29, 76},
{29, 79},
{29, 82},
{29, 83},
{29, 85},
{29, 86},
{29, 87},
{29, 90},
{29, 91},
{29, 92},
{29, 93},
{29, 94},
{29, 96},
{29, 100},
{29, 101},
{29, 102},
{29, 103},
{29, 105},
{29, 106},
{29, 108},
{29, 110},
{30, 31},
{30, 32},
{30, 33},
{30, 35},
{30, 37},
{30, 38},
{30, 41},
{30, 43},
{30, 45},
{30, 46},
{30, 48},
{30, 49},
{30, 53},
{30, 55},
{30, 60},
{30, 61},
{30, 62},
{30, 63},
{30, 64},
{30, 70},
{30, 72},
{30, 73},
{30, 74},
{30, 76},
{30, 77},
{30, 78},
{30, 79},
{30, 80},
{30, 81},
{30, 82},
{30, 83},
{30, 84},
{30, 85},
{30, 86},
{30, 87},
{30, 89},
{30, 91},
{30, 92},
{30, 96},
{30, 99},
{30, 100},
{30, 106},
{31, 32},
{31, 34},
{31, 36},
{31, 39},
{31, 43},
{31, 44},
{31, 46},
{31, 47},
{31, 50},
{31, 52},
{31, 56},
{31, 57},
{31, 58},
{31, 61},
{31, 62},
{31, 63},
{31, 64},
{31, 65},
{31, 68},
{31, 70},
{31, 71},
{31, 73},
{31, 74},
{31, 76},
{31, 77},
{31, 79},
{31, 80},
{31, 82},
{31, 86},
{31, 87},
{31, 90},
{31, 91},
{31, 93},
{31, 94},
{31, 95},
{31, 97},
{31, 98},
{31, 99},
{31, 101},
{31, 102},
{31, 104},
{31, 107},
{32, 33},
{32, 35},
{32, 36},
{32, 37},
{32, 39},
{32, 42},
{32, 44},
{32, 45},
{32, 47},
{32, 48},
{32, 49},
{32, 54},
{32, 55},
{32, 60},
{32, 62},
{32, 67},
{32, 68},
{32, 70},
{32, 71},
{32, 72},
{32, 74},
{32, 76},
{32, 77},
{32, 78},
{32, 79},
{32, 80},
{32, 82},
{32, 85},
{32, 86},
{32, 89},
{32, 91},
{32, 93},
{32, 94},
{32, 95},
{32, 97},
{32, 98},
{32, 99},
{32, 101},
{32, 103},
{32, 104},
{32, 106},
{32, 108},
{33, 35},
{33, 36},
{33, 37},
{33, 38},
{33, 39},
{33, 40},
{33, 43},
{33, 45},
{33, 48},
{33, 49},
{33, 50},
{33, 51},
{33, 52},
{33, 54},
{33, 55},
{33, 61},
{33, 62},
{33, 63},
{33, 64},
{33, 65},
{33, 68},
{33, 70},
{33, 72},
{33, 75},
{33, 77},
{33, 79},
{33, 80},
{33, 81},
{33, 83},
{33, 85},
{33, 93},
{33, 95},
{33, 96},
{33, 101},
{33, 102},
{33, 104},
{33, 110},
{34, 36},
{34, 37},
{34, 40},
{34, 41},
{34, 46},
{34, 47},
{34, 48},
{34, 49},
{34, 54},
{34, 55},
{34, 57},
{34, 59},
{34, 64},
{34, 67},
{34, 70},
{34, 72},
{34, 74},
{34, 76},
{34, 82},
{34, 83},
{34, 84},
{34, 85},
{34, 86},
{34, 87},
{34, 89},
{34, 91},
{34, 95},
{34, 97},
{34, 98},
{34, 99},
{34, 100},
{34, 101},
{34, 102},
{34, 107},
{35, 38},
{35, 40},
{35, 41},
{35, 42},
{35, 44},
{35, 45},
{35, 47},
{35, 50},
{35, 52},
{35, 54},
{35, 55},
{35, 57},
{35, 60},
{35, 64},
{35, 65},
{35, 67},
{35, 69},
{35, 70},
{35, 71},
{35, 80},
{35, 82},
{35, 83},
{35, 86},
{35, 89},
{35, 90},
{35, 91},
{35, 93},
{35, 94},
{35, 96},
{35, 98},
{35, 100},
{35, 110},
{36, 37},
{36, 39},
{36, 42},
{36, 43},
{36, 44},
{36, 45},
{36, 47},
{36, 48},
{36, 49},
{36, 50},
{36, 51},
{36, 52},
{36, 54},
{36, 56},
{36, 57},
{36, 58},
{36, 60},
{36, 62},
{36, 63},
{36, 64},
{36, 66},
{36, 69},
{36, 71},
{36, 76},
{36, 77},
{36, 81},
{36, 82},
{36, 83},
{36, 84},
{36, 85},
{36, 90},
{36, 91},
{36, 93},
{36, 96},
{36, 98},
{36, 100},
{36, 103},
{36, 105},
{36, 106},
{37, 39},
{37, 46},
{37, 47},
{37, 50},
{37, 52},
{37, 53},
{37, 54},
{37, 56},
{37, 57},
{37, 58},
{37, 59},
{37, 63},
{37, 64},
{37, 65},
{37, 66},
{37, 68},
{37, 69},
{37, 71},
{37, 72},
{37, 73},
{37, 75},
{37, 76},
{37, 78},
{37, 81},
{37, 82},
{37, 83},
{37, 85},
{37, 86},
{37, 90},
{37, 91},
{37, 92},
{37, 95},
{37, 100},
{37, 101},
{37, 102},
{37, 104},
{37, 106},
{37, 108},
{37, 109},
{38, 39},
{38, 40},
{38, 42},
{38, 46},
{38, 50},
{38, 51},
{38, 55},
{38, 56},
{38, 57},
{38, 59},
{38, 62},
{38, 66},
{38, 67},
{38, 71},
{38, 74},
{38, 77},
{38, 80},
{38, 81},
{38, 84},
{38, 88},
{38, 89},
{38, 90},
{38, 91},
{38, 92},
{38, 95},
{38, 97},
{38, 98},
{38, 102},
{38, 103},
{38, 104},
{39, 40},
{39, 41},
{39, 42},
{39, 44},
{39, 46},
{39, 48},
{39, 49},
{39, 50},
{39, 52},
{39, 54},
{39, 55},
{39, 56},
{39, 57},
{39, 58},
{39, 60},
{39, 61},
{39, 63},
{39, 64},
{39, 67},
{39, 69},
{39, 70},
{39, 72},
{39, 76},
{39, 80},
{39, 82},
{39, 84},
{39, 85},
{39, 86},
{39, 87},
{39, 90},
{39, 91},
{39, 92},
{39, 93},
{39, 98},
{39, 99},
{39, 100},
{39, 102},
{39, 103},
{39, 104},
{39, 106},
{40, 42},
{40, 43},
{40, 44},
{40, 47},
{40, 48},
{40, 52},
{40, 53},
{40, 54},
{40, 55},
{40, 56},
{40, 57},
{40, 58},
{40, 60},
{40, 61},
{40, 64},
{40, 65},
{40, 67},
{40, 74},
{40, 76},
{40, 78},
{40, 82},
{40, 83},
{40, 84},
{40, 86},
{40, 89},
{40, 90},
{40, 94},
{40, 95},
{40, 98},
{40, 99},
{40, 103},
{40, 104},
{40, 105},
{40, 106},
{40, 108},
{40, 110},
{41, 43},
{41, 44},
{41, 46},
{41, 47},
{41, 48},
{41, 50},
{41, 53},
{41, 56},
{41, 59},
{41, 60},
{41, 62},
{41, 63},
{41, 65},
{41, 67},
{41, 68},
{41, 69},
{41, 71},
{41, 73},
{41, 76},
{41, 77},
{41, 80},
{41, 82},
{41, 83},
{41, 84},
{41, 89},
{41, 91},
{41, 92},
{41, 93},
{41, 95},
{41, 96},
{41, 97},
{41, 98},
{41, 100},
{41, 103},
{41, 106},
{41, 107},
{41, 110},
{42, 43},
{42, 45},
{42, 49},
{42, 51},
{42, 56},
{42, 57},
{42, 59},
{42, 62},
{42, 64},
{42, 66},
{42, 68},
{42, 69},
{42, 70},
{42, 72},
{42, 77},
{42, 79},
{42, 81},
{42, 82},
{42, 83},
{42, 84},
{42, 86},
{42, 87},
{42, 90},
{42, 92},
{42, 93},
{42, 94},
{42, 96},
{42, 97},
{42, 101},
{42, 102},
{42, 104},
{42, 105},
{42, 106},
{42, 107},
{42, 110},
{43, 44},
{43, 45},
{43, 50},
{43, 51},
{43, 55},
{43, 56},
{43, 59},
{43, 60},
{43, 63},
{43, 64},
{43, 65},
{43, 66},
{43, 68},
{43, 69},
{43, 73},
{43, 75},
{43, 77},
{43, 81},
{43, 82},
{43, 88},
{43, 90},
{43, 92},
{43, 96},
{43, 97},
{43, 99},
{43, 101},
{43, 102},
{43, 103},
{43, 106},
{43, 109},
{43, 110},
{44, 45},
{44, 46},
{44, 49},
{44, 51},
{44, 52},
{44, 53},
{44, 54},
{44, 57},
{44, 58},
{44, 60},
{44, 61},
{44, 63},
{44, 64},
{44, 65},
{44, 67},
{44, 68},
{44, 71},
{44, 72},
{44, 73},
{44, 75},
{44, 78},
{44, 79},
{44, 80},
{44, 81},
{44, 82},
{44, 83},
{44, 84},
{44, 85},
{44, 87},
{44, 90},
{44, 91},
{44, 94},
{44, 95},
{44, 96},
{44, 98},
{44, 100},
{44, 102},
{44, 104},
{44, 105},
{44, 106},
{44, 107},
{44, 109},
{44, 110},
{45, 46},
{45, 49},
{45, 52},
{45, 56},
{45, 57},
{45, 58},
{45, 59},
{45, 60},
{45, 61},
{45, 62},
{45, 63},
{45, 67},
{45, 68},
{45, 70},
{45, 71},
{45, 72},
{45, 73},
{45, 75},
{45, 76},
{45, 77},
{45, 78},
{45, 80},
{45, 81},
{45, 82},
{45, 84},
{45, 85},
{45, 86},
{45, 88},
{45, 89},
{45, 91},
{45, 93},
{45, 95},
{45, 97},
{45, 99},
{45, 100},
{45, 102},
{45, 107},
{45, 108},
{45, 109},
{45, 110},
{46, 47},
{46, 50},
{46, 51},
{46, 55},
{46, 57},
{46, 62},
{46, 64},
{46, 66},
{46, 73},
{46, 74},
{46, 75},
{46, 78},
{46, 79},
{46, 81},
{46, 83},
{46, 84},
{46, 86},
{46, 88},
{46, 89},
{46, 95},
{46, 98},
{46, 99},
{46, 100},
{46, 103},
{46, 104},
{46, 106},
{46, 108},
{47, 50},
{47, 51},
{47, 53},
{47, 57},
{47, 63},
{47, 67},
{47, 68},
{47, 69},
{47, 70},
{47, 75},
{47, 79},
{47, 83},
{47, 84},
{47, 85},
{47, 86},
{47, 87},
{47, 90},
{47, 91},
{47, 92},
{47, 93},
{47, 94},
{47, 95},
{47, 96},
{47, 97},
{47, 100},
{47, 101},
{47, 102},
{47, 104},
{47, 105},
{47, 106},
{47, 110},
{48, 49},
{48, 54},
{48, 55},
{48, 56},
{48, 60},
{48, 62},
{48, 64},
{48, 65},
{48, 66},
{48, 68},
{48, 69},
{48, 71},
{48, 72},
{48, 73},
{48, 75},
{48, 80},
{48, 81},
{48, 84},
{48, 86},
{48, 87},
{48, 89},
{48, 90},
{48, 92},
{48, 95},
{48, 102},
{48, 103},
{48, 109},
{48, 110},
{49, 53},
{49, 54},
{49, 55},
{49, 56},
{49, 57},
{49, 59},
{49, 64},
{49, 67},
{49, 68},
{49, 71},
{49, 72},
{49, 78},
{49, 79},
{49, 80},
{49, 81},
{49, 82},
{49, 84},
{49, 86},
{49, 87},
{49, 88},
{49, 89},
{49, 91},
{49, 92},
{49, 93},
{49, 96},
{49, 97},
{49, 98},
{49, 99},
{49, 102},
{49, 103},
{49, 108},
{49, 109},
{49, 110},
{50, 51},
{50, 54},
{50, 56},
{50, 58},
{50, 59},
{50, 61},
{50, 62},
{50, 63},
{50, 65},
{50, 68},
{50, 69},
{50, 70},
{50, 71},
{50, 72},
{50, 73},
{50, 77},
{50, 79},
{50, 86},
{50, 87},
{50, 90},
{50, 93},
{50, 95},
{50, 97},
{50, 98},
{50, 101},
{50, 102},
{50, 103},
{50, 104},
{50, 106},
{50, 109},
{51, 52},
{51, 53},
{51, 54},
{51, 55},
{51, 56},
{51, 59},
{51, 62},
{51, 65},
{51, 67},
{51, 71},
{51, 74},
{51, 75},
{51, 76},
{51, 77},
{51, 78},
{51, 81},
{51, 82},
{51, 85},
{51, 86},
{51, 94},
{51, 95},
{51, 100},
{51, 101},
{51, 102},
{51, 103},
{51, 104},
{51, 105},
{51, 107},
{51, 108},
{51, 109},
{51, 110},
{52, 53},
{52, 54},
{52, 58},
{52, 59},
{52, 61},
{52, 62},
{52, 63},
{52, 66},
{52, 67},
{52, 68},
{52, 69},
{52, 70},
{52, 71},
{52, 72},
{52, 73},
{52, 74},
{52, 75},
{52, 77},
{52, 79},
{52, 82},
{52, 83},
{52, 85},
{52, 86},
{52, 87},
{52, 94},
{52, 95},
{52, 97},
{52, 99},
{52, 100},
{52, 101},
{52, 106},
{52, 107},
{52, 109},
{53, 55},
{53, 57},
{53, 58},
{53, 59},
{53, 60},
{53, 61},
{53, 64},
{53, 65},
{53, 70},
{53, 74},
{53, 77},
{53, 80},
{53, 81},
{53, 83},
{53, 84},
{53, 87},
{53, 89},
{53, 91},
{53, 94},
{53, 95},
{53, 96},
{53, 98},
{53, 110},
{54, 55},
{54, 56},
{54, 59},
{54, 60},
{54, 62},
{54, 63},
{54, 64},
{54, 65},
{54, 66},
{54, 67},
{54, 68},
{54, 69},
{54, 73},
{54, 75},
{54, 76},
{54, 77},
{54, 78},
{54, 80},
{54, 81},
{54, 86},
{54, 87},
{54, 89},
{54, 91},
{54, 92},
{54, 94},
{54, 95},
{54, 98},
{54, 99},
{54, 102},
{54, 110},
{55, 59},
{55, 60},
{55, 61},
{55, 62},
{55, 64},
{55, 65},
{55, 67},
{55, 76},
{55, 80},
{55, 81},
{55, 82},
{55, 83},
{55, 87},
{55, 90},
{55, 91},
{55, 92},
{55, 93},
{55, 94},
{55, 95},
{55, 96},
{55, 98},
{55, 102},
{55, 103},
{55, 104},
{55, 106},
{55, 107},
{55, 108},
{55, 109},
{55, 110},
{56, 57},
{56, 58},
{56, 61},
{56, 68},
{56, 69},
{56, 71},
{56, 72},
{56, 73},
{56, 78},
{56, 79},
{56, 80},
{56, 81},
{56, 83},
{56, 84},
{56, 85},
{56, 87},
{56, 90},
{56, 92},
{56, 93},
{56, 94},
{56, 96},
{56, 99},
{56, 100},
{56, 101},
{56, 102},
{56, 105},
{56, 106},
{56, 107},
{56, 108},
{56, 109},
{57, 58},
{57, 59},
{57, 60},
{57, 65},
{57, 66},
{57, 68},
{57, 69},
{57, 71},
{57, 75},
{57, 76},
{57, 77},
{57, 79},
{57, 82},
{57, 86},
{57, 89},
{57, 91},
{57, 92},
{57, 95},
{57, 96},
{57, 98},
{57, 101},
{57, 108},
{57, 109},
{57, 110},
{58, 60},
{58, 63},
{58, 64},
{58, 65},
{58, 66},
{58, 67},
{58, 68},
{58, 73},
{58, 74},
{58, 78},
{58, 80},
{58, 81},
{58, 82},
{58, 85},
{58, 86},
{58, 90},
{58, 93},
{58, 95},
{58, 96},
{58, 97},
{58, 99},
{58, 102},
{58, 103},
{58, 104},
{58, 105},
{58, 106},
{58, 109},
{58, 110},
{59, 66},
{59, 68},
{59, 70},
{59, 71},
{59, 73},
{59, 74},
{59, 76},
{59, 77},
{59, 78},
{59, 79},
{59, 82},
{59, 83},
{59, 84},
{59, 85},
{59, 88},
{59, 92},
{59, 93},
{59, 94},
{59, 95},
{59, 97},
{59, 99},
{59, 101},
{59, 102},
{59, 105},
{59, 106},
{59, 107},
{59, 110},
{60, 61},
{60, 63},
{60, 64},
{60, 66},
{60, 67},
{60, 69},
{60, 70},
{60, 71},
{60, 74},
{60, 75},
{60, 76},
{60, 77},
{60, 78},
{60, 80},
{60, 84},
{60, 86},
{60, 93},
{60, 98},
{60, 99},
{60, 101},
{60, 105},
{60, 108},
{60, 109},
{61, 62},
{61, 63},
{61, 64},
{61, 66},
{61, 71},
{61, 72},
{61, 73},
{61, 75},
{61, 77},
{61, 80},
{61, 81},
{61, 83},
{61, 84},
{61, 87},
{61, 89},
{61, 90},
{61, 93},
{61, 94},
{61, 95},
{61, 96},
{61, 98},
{61, 99},
{61, 100},
{61, 101},
{61, 102},
{61, 103},
{61, 104},
{61, 105},
{61, 106},
{61, 107},
{61, 108},
{61, 110},
{62, 63},
{62, 66},
{62, 67},
{62, 68},
{62, 70},
{62, 73},
{62, 74},
{62, 75},
{62, 76},
{62, 78},
{62, 80},
{62, 82},
{62, 84},
{62, 85},
{62, 86},
{62, 87},
{62, 90},
{62, 94},
{62, 95},
{62, 96},
{62, 97},
{62, 98},
{62, 99},
{62, 100},
{62, 102},
{62, 103},
{62, 104},
{62, 105},
{62, 106},
{62, 108},
{62, 110},
{63, 65},
{63, 66},
{63, 68},
{63, 70},
{63, 72},
{63, 73},
{63, 74},
{63, 78},
{63, 79},
{63, 80},
{63, 81},
{63, 82},
{63, 83},
{63, 84},
{63, 86},
{63, 87},
{63, 89},
{63, 90},
{63, 91},
{63, 94},
{63, 95},
{63, 98},
{63, 99},
{63, 100},
{63, 101},
{63, 102},
{63, 106},
{63, 108},
{64, 67},
{64, 69},
{64, 71},
{64, 72},
{64, 77},
{64, 79},
{64, 80},
{64, 82},
{64, 83},
{64, 85},
{64, 86},
{64, 87},
{64, 89},
{64, 91},
{64, 96},
{64, 97},
{64, 105},
{64, 106},
{64, 109},
{65, 66},
{65, 70},
{65, 72},
{65, 73},
{65, 74},
{65, 78},
{65, 80},
{65, 81},
{65, 84},
{65, 87},
{65, 88},
{65, 89},
{65, 92},
{65, 94},
{65, 96},
{65, 99},
{65, 100},
{65, 101},
{65, 103},
{65, 106},
{65, 110},
{66, 68},
{66, 69},
{66, 71},
{66, 73},
{66, 74},
{66, 75},
{66, 80},
{66, 84},
{66, 85},
{66, 86},
{66, 88},
{66, 92},
{66, 95},
{66, 96},
{66, 97},
{66, 105},
{66, 107},
{66, 110},
{67, 72},
{67, 79},
{67, 80},
{67, 81},
{67, 82},
{67, 83},
{67, 87},
{67, 91},
{67, 92},
{67, 93},
{67, 95},
{67, 97},
{67, 98},
{67, 99},
{67, 104},
{67, 108},
{67, 110},
{68, 70},
{68, 73},
{68, 74},
{68, 75},
{68, 77},
{68, 78},
{68, 79},
{68, 82},
{68, 84},
{68, 86},
{68, 87},
{68, 88},
{68, 93},
{68, 94},
{68, 95},
{68, 96},
{68, 104},
{68, 107},
{68, 109},
{69, 71},
{69, 73},
{69, 78},
{69, 79},
{69, 81},
{69, 82},
{69, 85},
{69, 92},
{69, 93},
{69, 95},
{69, 100},
{69, 101},
{69, 102},
{69, 105},
{69, 106},
{69, 107},
{69, 108},
{70, 72},
{70, 73},
{70, 74},
{70, 76},
{70, 77},
{70, 79},
{70, 81},
{70, 82},
{70, 84},
{70, 89},
{70, 91},
{70, 92},
{70, 93},
{70, 95},
{70, 96},
{70, 97},
{70, 100},
{70, 102},
{70, 103},
{70, 104},
{70, 105},
{70, 107},
{70, 108},
{70, 109},
{71, 72},
{71, 75},
{71, 77},
{71, 78},
{71, 79},
{71, 80},
{71, 83},
{71, 84},
{71, 85},
{71, 86},
{71, 87},
{71, 88},
{71, 92},
{71, 93},
{71, 96},
{71, 101},
{71, 105},
{71, 107},
{71, 108},
{71, 110},
{72, 76},
{72, 77},
{72, 78},
{72, 79},
{72, 80},
{72, 84},
{72, 85},
{72, 86},
{72, 87},
{72, 88},
{72, 89},
{72, 90},
{72, 91},
{72, 92},
{72, 93},
{72, 94},
{72, 97},
{72, 98},
{72, 99},
{72, 100},
{72, 101},
{72, 102},
{72, 103},
{72, 106},
{72, 107},
{73, 76},
{73, 77},
{73, 79},
{73, 81},
{73, 82},
{73, 84},
{73, 88},
{73, 89},
{73, 90},
{73, 95},
{73, 97},
{73, 98},
{73, 101},
{73, 102},
{73, 103},
{73, 104},
{73, 106},
{73, 107},
{73, 109},
{74, 75},
{74, 76},
{74, 77},
{74, 79},
{74, 81},
{74, 82},
{74, 83},
{74, 84},
{74, 85},
{74, 87},
{74, 89},
{74, 90},
{74, 91},
{74, 92},
{74, 94},
{74, 95},
{74, 96},
{74, 97},
{74, 100},
{74, 103},
{74, 108},
{75, 76},
{75, 77},
{75, 79},
{75, 83},
{75, 84},
{75, 85},
{75, 87},
{75, 88},
{75, 91},
{75, 92},
{75, 93},
{75, 97},
{75, 98},
{75, 101},
{75, 103},
{75, 104},
{75, 107},
{75, 108},
{75, 109},
{75, 110},
{76, 77},
{76, 78},
{76, 79},
{76, 82},
{76, 83},
{76, 85},
{76, 86},
{76, 88},
{76, 94},
{76, 98},
{76, 100},
{76, 101},
{76, 102},
{76, 104},
{76, 108},
{76, 109},
{77, 81},
{77, 83},
{77, 85},
{77, 88},
{77, 96},
{77, 97},
{77, 99},
{77, 100},
{77, 101},
{77, 103},
{77, 104},
{77, 109},
{78, 83},
{78, 84},
{78, 85},
{78, 87},
{78, 88},
{78, 91},
{78, 92},
{78, 94},
{78, 95},
{78, 96},
{78, 99},
{78, 100},
{78, 101},
{78, 106},
{78, 109},
{78, 110},
{79, 80},
{79, 82},
{79, 83},
{79, 84},
{79, 88},
{79, 90},
{79, 92},
{79, 94},
{79, 99},
{79, 100},
{79, 102},
{79, 103},
{79, 105},
{79, 106},
{79, 108},
{79, 110},
{80, 82},
{80, 83},
{80, 85},
{80, 89},
{80, 92},
{80, 95},
{80, 96},
{80, 98},
{80, 102},
{80, 103},
{80, 104},
{80, 107},
{80, 110},
{81, 82},
{81, 83},
{81, 84},
{81, 85},
{81, 86},
{81, 88},
{81, 89},
{81, 92},
{81, 93},
{81, 94},
{81, 98},
{81, 99},
{81, 100},
{81, 103},
{81, 104},
{81, 105},
{81, 107},
{81, 108},
{81, 110},
{82, 84},
{82, 87},
{82, 89},
{82, 92},
{82, 93},
{82, 95},
{82, 96},
{82, 97},
{82, 98},
{82, 99},
{82, 103},
{82, 104},
{82, 106},
{82, 107},
{82, 108},
{82, 109},
{83, 85},
{83, 87},
{83, 89},
{83, 93},
{83, 94},
{83, 97},
{83, 98},
{83, 99},
{83, 102},
{83, 104},
{83, 106},
{83, 107},
{83, 108},
{83, 109},
{84, 85},
{84, 88},
{84, 95},
{84, 98},
{84, 103},
{84, 107},
{84, 108},
{84, 109},
{85, 87},
{85, 88},
{85, 91},
{85, 92},
{85, 94},
{85, 99},
{85, 101},
{85, 102},
{85, 103},
{85, 105},
{85, 106},
{85, 107},
{85, 109},
{86, 88},
{86, 90},
{86, 92},
{86, 93},
{86, 95},
{86, 96},
{86, 97},
{86, 98},
{86, 99},
{86, 100},
{86, 104},
{86, 107},
{86, 108},
{86, 110},
{87, 88},
{87, 89},
{87, 90},
{87, 91},
{87, 96},
{87, 99},
{87, 103},
{87, 104},
{87, 105},
{88, 89},
{88, 90},
{88, 92},
{88, 93},
{88, 94},
{88, 95},
{88, 97},
{88, 98},
{88, 99},
{88, 100},
{88, 102},
{88, 104},
{88, 105},
{88, 106},
{88, 107},
{88, 108},
{88, 109},
{88, 110},
{89, 91},
{89, 94},
{89, 95},
{89, 97},
{89, 101},
{89, 102},
{89, 103},
{89, 105},
{89, 108},
{90, 95},
{90, 96},
{90, 101},
{90, 102},
{90, 104},
{90, 105},
{90, 106},
{90, 109},
{91, 94},
{91, 95},
{91, 96},
{91, 97},
{91, 99},
{91, 100},
{91, 101},
{91, 102},
{91, 104},
{91, 105},
{91, 108},
{91, 109},
{92, 93},
{92, 97},
{92, 98},
{92, 99},
{92, 101},
{92, 102},
{92, 105},
{92, 106},
{92, 107},
{92, 109},
{92, 110},
{93, 95},
{93, 99},
{93, 101},
{93, 102},
{93, 103},
{93, 104},
{93, 105},
{93, 106},
{93, 107},
{93, 110},
{94, 95},
{94, 97},
{94, 98},
{94, 99},
{94, 101},
{94, 103},
{94, 105},
{94, 108},
{94, 110},
{95, 96},
{95, 98},
{95, 103},
{95, 106},
{95, 107},
{95, 108},
{96, 97},
{96, 98},
{96, 100},
{96, 102},
{96, 103},
{96, 104},
{96, 105},
{96, 107},
{96, 108},
{96, 110},
{97, 99},
{97, 100},
{97, 101},
{97, 106},
{97, 107},
{97, 110},
{98, 99},
{98, 101},
{98, 104},
{98, 105},
{98, 107},
{98, 110},
{99, 100},
{99, 102},
{99, 103},
{99, 104},
{99, 106},
{99, 108},
{99, 109},
{99, 110},
{100, 101},
{100, 102},
{100, 104},
{100, 105},
{100, 106},
{100, 108},
{100, 109},
{101, 102},
{101, 103},
{101, 106},
{101, 107},
{102, 103},
{102, 105},
{102, 106},
{102, 107},
{102, 109},
{103, 104},
{103, 105},
{103, 106},
{103, 107},
{103, 109},
{104, 107},
{104, 110},
{105, 106},
{105, 108},
{105, 109},
{107, 109},
{108, 109},
{108, 110},
{109, 110}}
